p cnf 40 60                 
4 2 18 0
1 -19 0
3 -19 0
-1 -3 19 0
-18 -19 20 0
-2 -1 -7 0
7 -11 0
-4 -3 -9 0
9 -11 0
-6 -5 -12 0
12 -14 0
5 6 -13 0
13 -14 0
7 -15 0
1 2 -8 0
8 -15 0
15 -17 0
9 -16 0
3 4 -10 0
10 -16 0
16 -17 0
4 21 0
2 21 0
-4 -2 -21 0
21 -23 0
-2 22 0
-4 22 0
2 4 -22 0
22 -23 0
-21 -22 23 0
23 -28 0
-1 -2 24 0
-24 26 0
-3 -4 25 0
-25 26 0
-26 -27 0
22 -27 0
27 -28 0
-23 -38 0
19 22 -29 0
29 -37 0
-1 -5 30 0
-30 34 0
-3 -6 32 0
-32 34 0
-34 -36 0
2 -31 0
5 -31 0
4 -33 0
6 -33 0
31 33 -35 0
35 -36 0
36 -37 0
37 -38 0
28 38 -39 0
-20 0
11 0
14 0
17 0
39 0
